data/solutions/recovery/wellformed/moderate/binding/wellformed_moderate_instance64/1.sol
Elapsed time: 0.02
Upper bound: 4965.0
Planning weighted value: 128586.0
C[0]=4965.0
C[1]=4896.0
C[2]=4813.0
C[3]=4770.0
C[4]=0.0
y[0]=2
y[1]=2
y[2]=1
y[3]=0
y[4]=2
y[5]=2
y[6]=0
y[7]=2
y[8]=2
y[9]=3
y[10]=3
y[11]=3
y[12]=2
y[13]=2
y[14]=0
y[15]=1
y[16]=2
y[17]=1
y[18]=3
y[19]=1
y[20]=3
y[21]=0
y[22]=0
y[23]=2
y[24]=0
y[25]=3
y[26]=1
y[27]=1
y[28]=1
y[29]=1
y[30]=1
y[31]=3
y[32]=0
y[33]=1
y[34]=2
y[35]=3
y[36]=3
y[37]=0
y[38]=0
y[39]=1
y[40]=3
